10 1 5
566 611 506 180 817 184 585 423 26 317 
62 84 977 979 874 54 269 93 881 563 
664 982 962 140 224 215 12 869 332 537 
557 898 148 63 78 964 246 662 386 272 
979 448 355 955 426 229 9 695 322 889 
2570 9850 8710 2190 1250 940 4340 1370 9630 7650 
24250
